unsat
((set-logic NIA)
(declare-fun r!2 () Int)
(declare-fun s!1 () Int)
(declare-fun x!0 () Int)
(proof
(let ((?x1141 (* r!2 r!2)))
 (let ((?x1232 (* 3 ?x1141)))
 (let ((?x589 (* (- 1) s!1)))
 (let ((?x249 (* r00 r00)))
 (let ((?x263 (* (- 3) ?x249)))
 (let ((?x588 (+ s00 ?x263 ?x589 ?x1232)))
 (let (($x1218 (<= ?x588 0)))
 (let (($x606 (= ?x588 0)))
 (let ((?x650 (* 6 r!2)))
 (let ((?x884 (+ 3 s!1 ?x650)))
 (let ((?x645 (+ 1 r!2)))
 (let ((?x308 (* ?x645 ?x645 ?x884 ?x884 ?x884 ?x884 ?x884 ?x588)))
 (let (($x519 (= ?x308 0)))
 (let (($x1365 (not $x519)))
 (let ((?x1294 (* x00 x00)))
 (let ((?x319 (* 108 ?x1294)))
 (let ((?x1132 (* s00 s00 s00)))
 (let ((?x1044 (* 16 ?x1132)))
 (let ((?x294 (* (- 9) s!1)))
 (let ((?x830 (* r00 r00 r00 x00)))
 (let ((?x848 (* (- 432) ?x830)))
 (let ((?x753 (* s00 x00)))
 (let ((?x898 (* (- 108) ?x753)))
 (let ((?x595 (* s00 r00 r00)))
 (let ((?x1216 (* (- 36) ?x595)))
 (let ((?x539 (* s00 s00)))
 (let ((?x1114 (* 51 ?x539)))
 (let ((?x531 (* r00 r00 s!1)))
 (let ((?x1224 (* 36 ?x531)))
 (let ((?x470 (* r00 x00)))
 (let ((?x327 (* 108 ?x470)))
 (let ((?x137 (* 9 s00)))
 (let ((?x670 (+ ?x137 (* (- 216) (* x00 x!0)) (* (- 54) (* s00 r00)) (* 216 (* s00 r00 x00)) ?x327 (* 108 (* s00 x!0)) (* (- 66) (* s00 s!1)) ?x1224 (* 15 (* s!1 s!1)) ?x1114 ?x1216 (* (- 108) (* s00 s00 r00)) (* (- 36) (* s00 s00 r00 r00)) (* (- 216) (* r00 r00 r00 s!1)) ?x898 (* (- 4) (* s!1 s!1 s!1)) (* 108 (* x!0 x!0)) ?x848 (* 432 (* r00 r00 r00 x!0)) (* (- 216) (* s00 r00 x!0)) (* (- 12) (* s00 s!1 s!1)) (* 108 (* x00 s!1)) (* 54 (* r00 s!1)) (* 216 (* s00 r00 r00 r00)) ?x294 (* 108 (* s00 r00 s!1)) (* (- 108) (* x!0 s!1)) ?x1044 (* (- 108) (* r00 x!0)) ?x319 (* 36 (* r00 r00 s!1 s!1)))))
 (let ((?x825 (* r00 r00 x00)))
 (let ((?x675 (* 36 ?x825)))
 (let ((?x1133 (* (- 6) ?x753)))
 (let ((?x681 (* 15 ?x539)))
 (let ((?x782 (* 54 ?x470)))
 (let ((?x940 (+ ?x137 (* (- 24) (* s00 r00)) ?x782 (* 6 (* s00 x!0)) (* (- 12) (* s00 s!1)) ?x1224 (* (- 3) (* s!1 s!1)) ?x681 ?x1216 (* 2 (* s00 s00 r00)) ?x1133 ?x675 (* 24 (* s!1 r!2)) (* (- 36) (* r00 x!0 r!2)) (* 6 (* x00 s!1)) (* (- 24) (* s00 r!2)) (* 24 (* r00 s!1)) ?x294 (* 2 (* s00 r00 s!1)) (* (- 2) (* s!1 s!1 r!2)) (* (- 6) (* x!0 s!1)) (* (- 54) (* r00 x!0)) (* 54 (* x00 r!2)) (* 36 (* r00 x00 r!2)) (* 4 (* s00 s00 r!2)) (* (- 2) (* s00 s!1 r!2)) (* (- 4) (* r00 s!1 s!1)) (* (- 36) (* r00 r00 x!0)) (* (- 54) (* x!0 r!2)))))
 (let ((?x1178 (* (- 3) s!1)))
 (let ((?x981 (* 4 ?x539)))
 (let ((?x866 (* 18 ?x470)))
 (let ((?x44 (* 3 s00)))
 (let ((?x1120 (+ ?x44 (* (- 6) (* r00 s!1 r!2)) (* 6 (* s00 r00 r!2)) (* (- 9) (* s00 r00)) ?x866 (* (- 2) (* s00 s!1)) (* 6 ?x531) (* (- 2) (* s!1 s!1)) ?x981 (* (- 6) ?x595) (* 9 (* s!1 r!2)) (* (- 9) (* s00 r!2)) (* 9 (* r00 s!1)) ?x1178 (* (- 18) (* r00 x!0)) (* 18 (* x00 r!2)) (* (- 18) (* x!0 r!2)))))
 (let ((?x536 (* 3 r!2)))
 (let ((?x1282 (* 6 x!0)))
 (let ((?x417 (* r00 r00 r00)))
 (let ((?x418 (* 12 ?x417)))
 (let ((?x374 (* s00 r00)))
 (let ((?x452 (* (- 6) ?x374)))
 (let ((?x449 (* (- 6) x00)))
 (let ((?x448 (* (- 3) r00)))
 (let ((?x354 (+ ?x44 ?x448 ?x449 ?x452 ?x418 ?x1282 (* (- 12) (* r00 r00 r!2)) (* 2 (* s!1 r!2)) (* 4 (* s00 r!2)) ?x1178 ?x536)))
 (let (($x289 (and $x606 (= ?x354 0) (= ?x1120 0) (= ?x940 0) (= ?x670 0) $x1365)))
 (let ((?x653 (+ 3 ?x650 s!1)))
 (let (($x929 (= (* ?x645 ?x645 ?x653 ?x653 ?x653 ?x653 ?x653 (+ ?x589 s00 ?x1232 ?x263)) 0)))
 (let ((?x1324 (* (- 108) ?x1294)))
 (let ((?x1323 (* (- 16) ?x1132)))
 (let ((?x1004 (* s00 r00 r00 r00)))
 (let ((?x1319 (* (- 216) ?x1004)))
 (let ((?x831 (* 432 ?x830)))
 (let ((?x1077 (* 108 ?x753)))
 (let ((?x679 (* s00 s00 r00 r00)))
 (let ((?x680 (* 36 ?x679)))
 (let ((?x616 (* s00 s00 r00)))
 (let ((?x960 (* 108 ?x616)))
 (let ((?x948 (* 36 ?x595)))
 (let ((?x1313 (* (- 51) ?x539)))
 (let ((?x1387 (* s!1 r00 r00)))
 (let ((?x1234 (* (- 36) ?x1387)))
 (let ((?x1310 (* (- 108) ?x470)))
 (let ((?x461 (* s00 r00 x00)))
 (let ((?x1309 (* (- 216) ?x461)))
 (let ((?x468 (* 54 ?x374)))
 (let ((?x935 (* (- 9) s00)))
 (let ((?x1135 (* 9 s!1)))
 (let ((?x635 (+ ?x1135 ?x935 ?x468 ?x1309 ?x1310 (* (- 15) (* s!1 s!1)) ?x1234 ?x1313 (* (- 108) (* x!0 s00)) (* 108 (* x!0 r00)) (* 216 (* s!1 r00 r00 r00)) ?x948 ?x960 (* 66 (* s!1 s00)) (* (- 54) (* s!1 r00)) (* (- 108) (* s!1 x00)) ?x680 (* (- 108) (* s!1 s00 r00)) (* 4 (* s!1 s!1 s!1)) ?x1077 (* 108 (* s!1 x!0)) (* (- 108) (* x!0 x!0)) ?x831 (* 12 (* s!1 s!1 s00)) ?x1319 (* (- 432) (* x!0 r00 r00 r00)) (* 216 (* x!0 s00 r00)) (* (- 36) (* s!1 s!1 r00 r00)) ?x1323 (* 216 (* x!0 x00)) ?x1324)))
 (let ((?x838 (* (- 36) ?x825)))
 (let ((?x754 (* 6 ?x753)))
 (let ((?x644 (* (- 2) ?x616)))
 (let ((?x864 (* (- 15) ?x539)))
 (let ((?x499 (* (- 54) ?x470)))
 (let ((?x512 (* 24 ?x374)))
 (let ((?x614 (+ ?x1135 ?x935 (* (- 24) (* r!2 s!1)) (* 24 (* r!2 s00)) ?x512 ?x499 (* 3 (* s!1 s!1)) (* 54 (* r!2 x!0)) (* 36 (* r!2 x!0 r00)) ?x1234 ?x864 (* (- 6) (* x!0 s00)) (* 54 (* x!0 r00)) ?x948 (* 4 (* s!1 s!1 r00)) (* (- 54) (* r!2 x00)) ?x644 (* 12 (* s!1 s00)) (* (- 24) (* s!1 r00)) (* (- 6) (* s!1 x00)) (* (- 2) (* s!1 s00 r00)) ?x754 (* 2 (* r!2 s!1 s!1)) (* 6 (* s!1 x!0)) (* (- 4) (* r!2 s00 s00)) ?x838 (* 2 (* r!2 s!1 s00)) (* (- 36) (* r!2 r00 x00)) (* 36 (* x!0 r00 r00)))))
 (let ((?x596 (* 6 ?x595)))
 (let ((?x552 (* (- 4) ?x539)))
 (let ((?x484 (* (- 18) ?x470)))
 (let ((?x489 (* 9 ?x374)))
 (let ((?x326 (* (- 3) s00)))
 (let ((?x934 (+ (* 3 s!1) ?x326 (* (- 9) (* r!2 s!1)) (* 9 (* r!2 s00)) ?x489 ?x484 (* 2 (* s!1 s!1)) (* 18 (* r!2 x!0)) (* 6 (* r!2 s!1 r00)) (* (- 6) ?x1387) ?x552 (* 18 (* x!0 r00)) ?x596 (* (- 18) (* r!2 x00)) (* 2 (* s!1 s00)) (* (- 9) (* s!1 r00)) (* (- 6) (* r!2 s00 r00)))))
 (let ((?x780 (+ ?x536 ?x1178 ?x1282 ?x44 ?x448 ?x449 (* 2 (* r!2 s!1)) (* (- 12) (* r!2 r00 r00)) (* 4 (* r!2 s00)) ?x452 ?x418)))
 (let (($x651 (and (= (+ s!1 (* (- 1) s00) (* (- 3) ?x1141) (* 3 ?x249)) 0) (= ?x780 0) (= ?x934 0) (= ?x614 0) (= ?x635 0) (not $x929))))
 (let (($x1230 (exists ((r Int) (s Int) (x Int) )(! (let ((?x249 (* r00 r00)))
 (let ((?x263 (* (- 3) ?x249)))
 (let ((?x237 (* r r)))
 (let ((?x238 (* 3 ?x237)))
 (let ((?x228 (* (- 1) s)))
 (let ((?x211 (* 6 r)))
 (let ((?x1331 (+ 3 ?x211 s)))
 (let ((?x1364 (+ 1 r)))
 (let (($x781 (= (* ?x1364 ?x1364 ?x1331 ?x1331 ?x1331 ?x1331 ?x1331 (+ ?x228 s00 ?x238 ?x263)) 0)))
 (let ((?x1294 (* x00 x00)))
 (let ((?x1324 (* (- 108) ?x1294)))
 (let ((?x1132 (* s00 s00 s00)))
 (let ((?x1323 (* (- 16) ?x1132)))
 (let ((?x1004 (* s00 r00 r00 r00)))
 (let ((?x1319 (* (- 216) ?x1004)))
 (let ((?x830 (* r00 r00 r00 x00)))
 (let ((?x831 (* 432 ?x830)))
 (let ((?x753 (* s00 x00)))
 (let ((?x1077 (* 108 ?x753)))
 (let ((?x679 (* s00 s00 r00 r00)))
 (let ((?x680 (* 36 ?x679)))
 (let ((?x616 (* s00 s00 r00)))
 (let ((?x960 (* 108 ?x616)))
 (let ((?x595 (* s00 r00 r00)))
 (let ((?x948 (* 36 ?x595)))
 (let ((?x539 (* s00 s00)))
 (let ((?x1313 (* (- 51) ?x539)))
 (let ((?x513 (* s r00 r00)))
 (let ((?x812 (* (- 36) ?x513)))
 (let ((?x470 (* r00 x00)))
 (let ((?x1310 (* (- 108) ?x470)))
 (let ((?x461 (* s00 r00 x00)))
 (let ((?x1309 (* (- 216) ?x461)))
 (let ((?x374 (* s00 r00)))
 (let ((?x468 (* 54 ?x374)))
 (let ((?x935 (* (- 9) s00)))
 (let ((?x143 (* 9 s)))
 (let ((?x1325 (+ ?x143 ?x935 ?x468 ?x1309 ?x1310 (* (- 15) (* s s)) ?x812 ?x1313 (* (- 108) (* x s00)) (* 108 (* x r00)) (* 216 (* s r00 r00 r00)) ?x948 ?x960 (* 66 (* s s00)) (* (- 54) (* s r00)) (* (- 108) (* s x00)) ?x680 (* (- 108) (* s s00 r00)) (* 4 (* s s s)) ?x1077 (* 108 (* s x)) (* (- 108) (* x x)) ?x831 (* 12 (* s s s00)) ?x1319 (* (- 432) (* x r00 r00 r00)) (* 216 (* x s00 r00)) (* (- 36) (* s s r00 r00)) ?x1323 (* 216 (* x x00)) ?x1324)))
 (let (($x1326 (= ?x1325 0)))
 (let ((?x825 (* r00 r00 x00)))
 (let ((?x838 (* (- 36) ?x825)))
 (let ((?x754 (* 6 ?x753)))
 (let ((?x644 (* (- 2) ?x616)))
 (let ((?x864 (* (- 15) ?x539)))
 (let ((?x493 (* s s)))
 (let ((?x517 (* 3 ?x493)))
 (let ((?x499 (* (- 54) ?x470)))
 (let ((?x512 (* 24 ?x374)))
 (let ((?x1027 (+ ?x143 ?x935 (* (- 24) (* r s)) (* 24 (* r s00)) ?x512 ?x499 ?x517 (* 54 (* r x)) (* 36 (* r x r00)) ?x812 ?x864 (* (- 6) (* x s00)) (* 54 (* x r00)) ?x948 (* 4 (* s s r00)) (* (- 54) (* r x00)) ?x644 (* 12 (* s s00)) (* (- 24) (* s r00)) (* (- 6) (* s x00)) (* (- 2) (* s s00 r00)) ?x754 (* 2 (* r s s)) (* 6 (* s x)) (* (- 4) (* r s00 s00)) ?x838 (* 2 (* r s s00)) (* (- 36) (* r r00 x00)) (* 36 (* x r00 r00)))))
 (let (($x1032 (= ?x1027 0)))
 (let ((?x596 (* 6 ?x595)))
 (let ((?x552 (* (- 4) ?x539)))
 (let ((?x494 (* 2 ?x493)))
 (let ((?x484 (* (- 18) ?x470)))
 (let ((?x489 (* 9 ?x374)))
 (let ((?x326 (* (- 3) s00)))
 (let ((?x47 (* 3 s)))
 (let ((?x693 (+ ?x47 ?x326 (* (- 9) (* r s)) (* 9 (* r s00)) ?x489 ?x484 ?x494 (* 18 (* r x)) (* 6 (* r s r00)) (* (- 6) ?x513) ?x552 (* 18 (* x r00)) ?x596 (* (- 18) (* r x00)) (* 2 (* s s00)) (* (- 9) (* s r00)) (* (- 6) (* r s00 r00)))))
 (let (($x700 (= ?x693 0)))
 (let ((?x417 (* r00 r00 r00)))
 (let ((?x418 (* 12 ?x417)))
 (let ((?x452 (* (- 6) ?x374)))
 (let ((?x449 (* (- 6) x00)))
 (let ((?x448 (* (- 3) r00)))
 (let ((?x44 (* 3 s00)))
 (let ((?x56 (* 6 x)))
 (let ((?x447 (* (- 3) s)))
 (let ((?x43 (* 3 r)))
 (let ((?x453 (+ ?x43 ?x447 ?x56 ?x44 ?x448 ?x449 (* 2 (* r s)) (* (- 12) (* r r00 r00)) (* 4 (* r s00)) ?x452 ?x418)))
 (let (($x454 (= ?x453 0)))
 (let (($x282 (= (+ s (* (- 1) s00) (* (- 3) ?x237) (* 3 ?x249)) 0)))
 (and $x282 $x454 $x700 $x1032 $x1326 (not $x781))))))))))))))))))))))))))))))))))))))))))))))))))))))))))))))))))))))))) :qid k!35))
 ))
 (let (($x954 (exists ((r Int) (s Int) (x Int) )(! (let ((?x249 (* r00 r00)))
 (let ((?x263 (* (- 3) ?x249)))
 (let ((?x228 (* (- 1) s)))
 (let ((?x1238 (+ (- 3) s00 ?x228 (* (- 6) r) (* 3 (* (+ 1 r) (+ 1 r))) ?x263)))
 (let ((?x211 (* 6 r)))
 (let ((?x1089 (+ 3 s ?x211)))
 (let ((?x1364 (+ 1 r)))
 (let (($x524 (not (= (* ?x1364 ?x1364 ?x1089 ?x1089 ?x1089 ?x1089 ?x1089 ?x1238) 0))))
 (let ((?x1294 (* x00 x00)))
 (let ((?x319 (* 108 ?x1294)))
 (let ((?x1264 (* (- 9) s)))
 (let ((?x735 (* r00 r00 s00)))
 (let ((?x1214 (* (- 36) ?x735)))
 (let ((?x137 (* 9 s00)))
 (let ((?x539 (* s00 s00)))
 (let ((?x1114 (* 51 ?x539)))
 (let ((?x969 (* r00 r00 s)))
 (let ((?x1034 (* 36 ?x969)))
 (let ((?x1132 (* s00 s00 s00)))
 (let ((?x1044 (* 16 ?x1132)))
 (let ((?x753 (* s00 x00)))
 (let ((?x898 (* (- 108) ?x753)))
 (let ((?x830 (* r00 r00 r00 x00)))
 (let ((?x848 (* (- 432) ?x830)))
 (let ((?x470 (* r00 x00)))
 (let ((?x327 (* 108 ?x470)))
 (let ((?x338 (+ (* 216 (* r00 s00 x00)) ?x327 (* (- 54) (* r00 s00)) (* 15 (* s s)) (* (- 216) (* r00 r00 r00 s)) (* (- 36) (* r00 r00 s00 s00)) (* (- 4) (* s s s)) (* 108 (* x x)) ?x848 (* (- 12) (* s00 s s)) (* 108 (* s00 x)) (* (- 108) (* r00 s00 s00)) (* 216 (* r00 r00 r00 s00)) (* 108 (* x00 s)) (* 432 (* r00 r00 r00 x)) (* (- 66) (* s00 s)) (* 108 (* r00 s00 s)) ?x898 (* (- 216) (* r00 s00 x)) (* 36 (* r00 r00 s s)) ?x1044 (* (- 108) (* x s)) ?x1034 ?x1114 (* (- 108) (* r00 x)) ?x137 ?x1214 ?x1264 (* 54 (* r00 s)) (* (- 216) (* x00 x)) ?x319)))
 (let (($x344 (= ?x338 0)))
 (let ((?x681 (* 15 ?x539)))
 (let ((?x825 (* r00 r00 x00)))
 (let ((?x675 (* 36 ?x825)))
 (let ((?x1133 (* (- 6) ?x753)))
 (let ((?x782 (* 54 ?x470)))
 (let ((?x431 (+ (* 24 (* s r)) ?x782 (* (- 36) (* r00 x r)) (* (- 24) (* r00 s00)) (* (- 3) (* s s)) (* (- 54) (* x r)) (* 6 (* s00 x)) (* (- 4) (* r00 s s)) (* 2 (* r00 s00 s00)) (* 6 (* x00 s)) (* (- 12) (* s00 s)) (* 2 (* r00 s00 s)) ?x1133 (* (- 2) (* s s r)) (* (- 6) (* x s)) (* 4 (* s00 s00 r)) ?x1034 ?x675 ?x681 (* (- 2) (* s00 s r)) (* 36 (* r00 x00 r)) (* (- 54) (* r00 x)) ?x137 ?x1214 (* 54 (* x00 r)) ?x1264 (* (- 24) (* s00 r)) (* 24 (* r00 s)) (* (- 36) (* r00 r00 x)))))
 (let ((?x447 (* (- 3) s)))
 (let ((?x44 (* 3 s00)))
 (let ((?x981 (* 4 ?x539)))
 (let ((?x866 (* 18 ?x470)))
 (let ((?x399 (+ (* 9 (* s r)) ?x866 (* (- 9) (* r00 s00)) (* (- 2) (* s s)) (* (- 18) (* x r)) (* (- 6) (* r00 s r)) (* 6 ?x969) ?x981 (* (- 18) (* r00 x)) ?x44 (* (- 6) ?x735) (* 18 (* x00 r)) ?x447 (* (- 9) (* s00 r)) (* (- 2) (* s00 s)) (* 9 (* r00 s)) (* 6 (* r00 s00 r)))))
 (let ((?x417 (* r00 r00 r00)))
 (let ((?x418 (* 12 ?x417)))
 (let ((?x449 (* (- 6) x00)))
 (let ((?x56 (* 6 x)))
 (let ((?x448 (* (- 3) r00)))
 (let ((?x43 (* 3 r)))
 (let ((?x582 (+ (* 2 (* s r)) (* (- 12) (* r00 r00 r)) ?x43 ?x44 ?x447 ?x448 (* 4 (* s00 r)) (* (- 6) (* r00 s00)) ?x56 ?x449 ?x418)))
 (let (($x1169 (= (+ s00 ?x228 (* 3 (* r r)) ?x263) 0)))
 (and $x1169 (= ?x582 0) (= ?x399 0) (= ?x431 0) $x344 $x524)))))))))))))))))))))))))))))))))))))))))))))))) :qid k!35))
 ))
 (let ((?x1231 (lambda ((r Int) (s Int) (x Int) )(let ((?x249 (* r00 r00)))
 (let ((?x263 (* (- 3) ?x249)))
 (let ((?x237 (* r r)))
 (let ((?x238 (* 3 ?x237)))
 (let ((?x228 (* (- 1) s)))
 (let ((?x211 (* 6 r)))
 (let ((?x1331 (+ 3 ?x211 s)))
 (let ((?x1364 (+ 1 r)))
 (let (($x781 (= (* ?x1364 ?x1364 ?x1331 ?x1331 ?x1331 ?x1331 ?x1331 (+ ?x228 s00 ?x238 ?x263)) 0)))
 (let ((?x1294 (* x00 x00)))
 (let ((?x1324 (* (- 108) ?x1294)))
 (let ((?x1132 (* s00 s00 s00)))
 (let ((?x1323 (* (- 16) ?x1132)))
 (let ((?x1004 (* s00 r00 r00 r00)))
 (let ((?x1319 (* (- 216) ?x1004)))
 (let ((?x830 (* r00 r00 r00 x00)))
 (let ((?x831 (* 432 ?x830)))
 (let ((?x753 (* s00 x00)))
 (let ((?x1077 (* 108 ?x753)))
 (let ((?x679 (* s00 s00 r00 r00)))
 (let ((?x680 (* 36 ?x679)))
 (let ((?x616 (* s00 s00 r00)))
 (let ((?x960 (* 108 ?x616)))
 (let ((?x595 (* s00 r00 r00)))
 (let ((?x948 (* 36 ?x595)))
 (let ((?x539 (* s00 s00)))
 (let ((?x1313 (* (- 51) ?x539)))
 (let ((?x513 (* s r00 r00)))
 (let ((?x812 (* (- 36) ?x513)))
 (let ((?x470 (* r00 x00)))
 (let ((?x1310 (* (- 108) ?x470)))
 (let ((?x461 (* s00 r00 x00)))
 (let ((?x1309 (* (- 216) ?x461)))
 (let ((?x374 (* s00 r00)))
 (let ((?x468 (* 54 ?x374)))
 (let ((?x935 (* (- 9) s00)))
 (let ((?x143 (* 9 s)))
 (let ((?x1325 (+ ?x143 ?x935 ?x468 ?x1309 ?x1310 (* (- 15) (* s s)) ?x812 ?x1313 (* (- 108) (* x s00)) (* 108 (* x r00)) (* 216 (* s r00 r00 r00)) ?x948 ?x960 (* 66 (* s s00)) (* (- 54) (* s r00)) (* (- 108) (* s x00)) ?x680 (* (- 108) (* s s00 r00)) (* 4 (* s s s)) ?x1077 (* 108 (* s x)) (* (- 108) (* x x)) ?x831 (* 12 (* s s s00)) ?x1319 (* (- 432) (* x r00 r00 r00)) (* 216 (* x s00 r00)) (* (- 36) (* s s r00 r00)) ?x1323 (* 216 (* x x00)) ?x1324)))
 (let (($x1326 (= ?x1325 0)))
 (let ((?x825 (* r00 r00 x00)))
 (let ((?x838 (* (- 36) ?x825)))
 (let ((?x754 (* 6 ?x753)))
 (let ((?x644 (* (- 2) ?x616)))
 (let ((?x864 (* (- 15) ?x539)))
 (let ((?x493 (* s s)))
 (let ((?x517 (* 3 ?x493)))
 (let ((?x499 (* (- 54) ?x470)))
 (let ((?x512 (* 24 ?x374)))
 (let ((?x1027 (+ ?x143 ?x935 (* (- 24) (* r s)) (* 24 (* r s00)) ?x512 ?x499 ?x517 (* 54 (* r x)) (* 36 (* r x r00)) ?x812 ?x864 (* (- 6) (* x s00)) (* 54 (* x r00)) ?x948 (* 4 (* s s r00)) (* (- 54) (* r x00)) ?x644 (* 12 (* s s00)) (* (- 24) (* s r00)) (* (- 6) (* s x00)) (* (- 2) (* s s00 r00)) ?x754 (* 2 (* r s s)) (* 6 (* s x)) (* (- 4) (* r s00 s00)) ?x838 (* 2 (* r s s00)) (* (- 36) (* r r00 x00)) (* 36 (* x r00 r00)))))
 (let (($x1032 (= ?x1027 0)))
 (let ((?x596 (* 6 ?x595)))
 (let ((?x552 (* (- 4) ?x539)))
 (let ((?x494 (* 2 ?x493)))
 (let ((?x484 (* (- 18) ?x470)))
 (let ((?x489 (* 9 ?x374)))
 (let ((?x326 (* (- 3) s00)))
 (let ((?x47 (* 3 s)))
 (let ((?x693 (+ ?x47 ?x326 (* (- 9) (* r s)) (* 9 (* r s00)) ?x489 ?x484 ?x494 (* 18 (* r x)) (* 6 (* r s r00)) (* (- 6) ?x513) ?x552 (* 18 (* x r00)) ?x596 (* (- 18) (* r x00)) (* 2 (* s s00)) (* (- 9) (* s r00)) (* (- 6) (* r s00 r00)))))
 (let (($x700 (= ?x693 0)))
 (let ((?x417 (* r00 r00 r00)))
 (let ((?x418 (* 12 ?x417)))
 (let ((?x452 (* (- 6) ?x374)))
 (let ((?x449 (* (- 6) x00)))
 (let ((?x448 (* (- 3) r00)))
 (let ((?x44 (* 3 s00)))
 (let ((?x56 (* 6 x)))
 (let ((?x447 (* (- 3) s)))
 (let ((?x43 (* 3 r)))
 (let ((?x453 (+ ?x43 ?x447 ?x56 ?x44 ?x448 ?x449 (* 2 (* r s)) (* (- 12) (* r r00 r00)) (* 4 (* r s00)) ?x452 ?x418)))
 (let (($x454 (= ?x453 0)))
 (let (($x282 (= (+ s (* (- 1) s00) (* (- 3) ?x237) (* 3 ?x249)) 0)))
 (let (($x1165 (and $x282 $x454 $x700 $x1032 $x1326 (not $x781))))
 (let ((?x1089 (+ 3 s ?x211)))
 (let ((?x549 (* ?x1364 ?x1364 ?x1089 ?x1089 ?x1089 ?x1089 ?x1089 (+ (- 3) s00 ?x228 (* (- 6) r) (* 3 (* ?x1364 ?x1364)) ?x263))))
 (let (($x524 (not (= ?x549 0))))
 (let ((?x319 (* 108 ?x1294)))
 (let ((?x1264 (* (- 9) s)))
 (let ((?x735 (* r00 r00 s00)))
 (let ((?x1214 (* (- 36) ?x735)))
 (let ((?x137 (* 9 s00)))
 (let ((?x1114 (* 51 ?x539)))
 (let ((?x969 (* r00 r00 s)))
 (let ((?x1034 (* 36 ?x969)))
 (let ((?x1044 (* 16 ?x1132)))
 (let ((?x898 (* (- 108) ?x753)))
 (let ((?x848 (* (- 432) ?x830)))
 (let ((?x327 (* 108 ?x470)))
 (let ((?x338 (+ (* 216 (* r00 s00 x00)) ?x327 (* (- 54) (* r00 s00)) (* 15 ?x493) (* (- 216) (* r00 r00 r00 s)) (* (- 36) (* r00 r00 s00 s00)) (* (- 4) (* s s s)) (* 108 (* x x)) ?x848 (* (- 12) (* s00 s s)) (* 108 (* s00 x)) (* (- 108) (* r00 s00 s00)) (* 216 (* r00 r00 r00 s00)) (* 108 (* x00 s)) (* 432 (* r00 r00 r00 x)) (* (- 66) (* s00 s)) (* 108 (* r00 s00 s)) ?x898 (* (- 216) (* r00 s00 x)) (* 36 (* r00 r00 s s)) ?x1044 (* (- 108) (* x s)) ?x1034 ?x1114 (* (- 108) (* r00 x)) ?x137 ?x1214 ?x1264 (* 54 (* r00 s)) (* (- 216) (* x00 x)) ?x319)))
 (let (($x344 (= ?x338 0)))
 (let ((?x681 (* 15 ?x539)))
 (let ((?x675 (* 36 ?x825)))
 (let ((?x1133 (* (- 6) ?x753)))
 (let ((?x782 (* 54 ?x470)))
 (let ((?x431 (+ (* 24 (* s r)) ?x782 (* (- 36) (* r00 x r)) (* (- 24) (* r00 s00)) (* (- 3) ?x493) (* (- 54) (* x r)) (* 6 (* s00 x)) (* (- 4) (* r00 s s)) (* 2 (* r00 s00 s00)) (* 6 (* x00 s)) (* (- 12) (* s00 s)) (* 2 (* r00 s00 s)) ?x1133 (* (- 2) (* s s r)) (* (- 6) (* x s)) (* 4 (* s00 s00 r)) ?x1034 ?x675 ?x681 (* (- 2) (* s00 s r)) (* 36 (* r00 x00 r)) (* (- 54) (* r00 x)) ?x137 ?x1214 (* 54 (* x00 r)) ?x1264 (* (- 24) (* s00 r)) (* 24 (* r00 s)) (* (- 36) (* r00 r00 x)))))
 (let ((?x981 (* 4 ?x539)))
 (let ((?x866 (* 18 ?x470)))
 (let ((?x399 (+ (* 9 (* s r)) ?x866 (* (- 9) (* r00 s00)) (* (- 2) ?x493) (* (- 18) (* x r)) (* (- 6) (* r00 s r)) (* 6 ?x969) ?x981 (* (- 18) (* r00 x)) ?x44 (* (- 6) ?x735) (* 18 (* x00 r)) ?x447 (* (- 9) (* s00 r)) (* (- 2) (* s00 s)) (* 9 (* r00 s)) (* 6 (* r00 s00 r)))))
 (let ((?x582 (+ (* 2 (* s r)) (* (- 12) (* r00 r00 r)) ?x43 ?x44 ?x447 ?x448 (* 4 (* s00 r)) (* (- 6) (* r00 s00)) ?x56 ?x449 ?x418)))
 (let (($x1169 (= (+ s00 ?x228 ?x238 ?x263) 0)))
 (let (($x425 (and $x1169 (= ?x582 0) (= ?x399 0) (= ?x431 0) $x344 $x524)))
 (rewrite (= $x425 $x1165)))))))))))))))))))))))))))))))))))))))))))))))))))))))))))))))))))))))))))))))))))))))))))))))))))))))
 ))
 (let (($x525 (exists ((r Int) (s Int) (x Int) )(! (let ((?x249 (* r00 r00)))
 (let ((?x263 (* (- 3) ?x249)))
 (let ((?x228 (* (- 1) s)))
 (let ((?x1238 (+ (- 3) s00 ?x228 (* (- 6) r) (* 3 (* (+ 1 r) (+ 1 r))) ?x263)))
 (let ((?x211 (* 6 r)))
 (let ((?x1089 (+ 3 s ?x211)))
 (let ((?x1364 (+ 1 r)))
 (let (($x524 (not (= (* ?x1364 ?x1364 ?x1089 ?x1089 ?x1089 ?x1089 ?x1089 ?x1238) 0))))
 (let ((?x1294 (* x00 x00)))
 (let ((?x319 (* 108 ?x1294)))
 (let ((?x1264 (* (- 9) s)))
 (let ((?x735 (* r00 r00 s00)))
 (let ((?x1214 (* (- 36) ?x735)))
 (let ((?x137 (* 9 s00)))
 (let ((?x539 (* s00 s00)))
 (let ((?x1114 (* 51 ?x539)))
 (let ((?x969 (* r00 r00 s)))
 (let ((?x1034 (* 36 ?x969)))
 (let ((?x1132 (* s00 s00 s00)))
 (let ((?x1044 (* 16 ?x1132)))
 (let ((?x753 (* s00 x00)))
 (let ((?x898 (* (- 108) ?x753)))
 (let ((?x830 (* r00 r00 r00 x00)))
 (let ((?x848 (* (- 432) ?x830)))
 (let ((?x470 (* r00 x00)))
 (let ((?x327 (* 108 ?x470)))
 (let ((?x338 (+ (* 216 (* r00 s00 x00)) ?x327 (* (- 54) (* r00 s00)) (* 15 (* s s)) (* (- 216) (* r00 r00 r00 s)) (* (- 36) (* r00 r00 s00 s00)) (* (- 4) (* s s s)) (* 108 (* x x)) ?x848 (* (- 12) (* s00 s s)) (* 108 (* s00 x)) (* (- 108) (* r00 s00 s00)) (* 216 (* r00 r00 r00 s00)) (* 108 (* x00 s)) (* 432 (* r00 r00 r00 x)) (* (- 66) (* s00 s)) (* 108 (* r00 s00 s)) ?x898 (* (- 216) (* r00 s00 x)) (* 36 (* r00 r00 s s)) ?x1044 (* (- 108) (* x s)) ?x1034 ?x1114 (* (- 108) (* r00 x)) ?x137 ?x1214 ?x1264 (* 54 (* r00 s)) (* (- 216) (* x00 x)) ?x319)))
 (let (($x344 (= ?x338 0)))
 (let ((?x143 (* 9 s)))
 (let ((?x935 (* (- 9) s00)))
 (let ((?x864 (* (- 15) ?x539)))
 (let ((?x825 (* r00 r00 x00)))
 (let ((?x838 (* (- 36) ?x825)))
 (let ((?x754 (* 6 ?x753)))
 (let ((?x493 (* s s)))
 (let ((?x517 (* 3 ?x493)))
 (let ((?x499 (* (- 54) ?x470)))
 (let ((?x604 (+ (* (- 24) (* s r)) ?x499 (* 36 (* r00 x r)) (* 24 (* r00 s00)) ?x517 (* 54 (* x r)) (* (- 6) (* s00 x)) (* 4 (* r00 s s)) (* (- 2) (* r00 s00 s00)) (* (- 6) (* x00 s)) (* 12 (* s00 s)) (* (- 2) (* r00 s00 s)) ?x754 (* 2 (* s s r)) (* 6 (* x s)) (* (- 4) (* s00 s00 r)) (* (- 36) ?x969) ?x838 ?x864 (* 2 (* s00 s r)) (* (- 36) (* r00 x00 r)) (* 54 (* r00 x)) ?x935 (* 36 ?x735) (* (- 54) (* x00 r)) ?x143 (* 24 (* s00 r)) (* (- 24) (* r00 s)) (* 36 (* r00 r00 x)))))
 (let ((?x47 (* 3 s)))
 (let ((?x326 (* (- 3) s00)))
 (let ((?x552 (* (- 4) ?x539)))
 (let ((?x494 (* 2 ?x493)))
 (let ((?x484 (* (- 18) ?x470)))
 (let ((?x1186 (+ (* (- 9) (* s r)) ?x484 (* 9 (* r00 s00)) ?x494 (* 18 (* x r)) (* 6 (* r00 s r)) (* (- 6) ?x969) ?x552 (* 18 (* r00 x)) ?x326 (* 6 ?x735) (* (- 18) (* x00 r)) ?x47 (* 9 (* s00 r)) (* 2 (* s00 s)) (* (- 9) (* r00 s)) (* (- 6) (* r00 s00 r)))))
 (let ((?x59 (* 6 x00)))
 (let ((?x48 (* 3 r00)))
 (let ((?x297 (* (- 3) r)))
 (let ((?x435 (+ (* (- 2) (* s r)) (* 12 (* r00 r00 r)) ?x297 ?x326 ?x47 ?x48 (* (- 4) (* s00 r)) (* 6 (* r00 s00)) (* (- 6) x) ?x59 (* (- 12) (* r00 r00 r00)))))
 (let (($x1169 (= (+ s00 ?x228 (* 3 (* r r)) ?x263) 0)))
 (and $x1169 (= ?x435 0) (= ?x1186 0) (= ?x604 0) $x344 $x524)))))))))))))))))))))))))))))))))))))))))))))))))) :qid k!35))
 ))
 (let ((?x433 (lambda ((r Int) (s Int) (x Int) )(let ((?x249 (* r00 r00)))
 (let ((?x263 (* (- 3) ?x249)))
 (let ((?x228 (* (- 1) s)))
 (let ((?x1238 (+ (- 3) s00 ?x228 (* (- 6) r) (* 3 (* (+ 1 r) (+ 1 r))) ?x263)))
 (let ((?x211 (* 6 r)))
 (let ((?x1089 (+ 3 s ?x211)))
 (let ((?x1364 (+ 1 r)))
 (let (($x524 (not (= (* ?x1364 ?x1364 ?x1089 ?x1089 ?x1089 ?x1089 ?x1089 ?x1238) 0))))
 (let ((?x1294 (* x00 x00)))
 (let ((?x319 (* 108 ?x1294)))
 (let ((?x1264 (* (- 9) s)))
 (let ((?x735 (* r00 r00 s00)))
 (let ((?x1214 (* (- 36) ?x735)))
 (let ((?x137 (* 9 s00)))
 (let ((?x539 (* s00 s00)))
 (let ((?x1114 (* 51 ?x539)))
 (let ((?x969 (* r00 r00 s)))
 (let ((?x1034 (* 36 ?x969)))
 (let ((?x1132 (* s00 s00 s00)))
 (let ((?x1044 (* 16 ?x1132)))
 (let ((?x753 (* s00 x00)))
 (let ((?x898 (* (- 108) ?x753)))
 (let ((?x830 (* r00 r00 r00 x00)))
 (let ((?x848 (* (- 432) ?x830)))
 (let ((?x470 (* r00 x00)))
 (let ((?x327 (* 108 ?x470)))
 (let ((?x338 (+ (* 216 (* r00 s00 x00)) ?x327 (* (- 54) (* r00 s00)) (* 15 (* s s)) (* (- 216) (* r00 r00 r00 s)) (* (- 36) (* r00 r00 s00 s00)) (* (- 4) (* s s s)) (* 108 (* x x)) ?x848 (* (- 12) (* s00 s s)) (* 108 (* s00 x)) (* (- 108) (* r00 s00 s00)) (* 216 (* r00 r00 r00 s00)) (* 108 (* x00 s)) (* 432 (* r00 r00 r00 x)) (* (- 66) (* s00 s)) (* 108 (* r00 s00 s)) ?x898 (* (- 216) (* r00 s00 x)) (* 36 (* r00 r00 s s)) ?x1044 (* (- 108) (* x s)) ?x1034 ?x1114 (* (- 108) (* r00 x)) ?x137 ?x1214 ?x1264 (* 54 (* r00 s)) (* (- 216) (* x00 x)) ?x319)))
 (let (($x344 (= ?x338 0)))
 (let ((?x681 (* 15 ?x539)))
 (let ((?x825 (* r00 r00 x00)))
 (let ((?x675 (* 36 ?x825)))
 (let ((?x1133 (* (- 6) ?x753)))
 (let ((?x782 (* 54 ?x470)))
 (let ((?x431 (+ (* 24 (* s r)) ?x782 (* (- 36) (* r00 x r)) (* (- 24) (* r00 s00)) (* (- 3) (* s s)) (* (- 54) (* x r)) (* 6 (* s00 x)) (* (- 4) (* r00 s s)) (* 2 (* r00 s00 s00)) (* 6 (* x00 s)) (* (- 12) (* s00 s)) (* 2 (* r00 s00 s)) ?x1133 (* (- 2) (* s s r)) (* (- 6) (* x s)) (* 4 (* s00 s00 r)) ?x1034 ?x675 ?x681 (* (- 2) (* s00 s r)) (* 36 (* r00 x00 r)) (* (- 54) (* r00 x)) ?x137 ?x1214 (* 54 (* x00 r)) ?x1264 (* (- 24) (* s00 r)) (* 24 (* r00 s)) (* (- 36) (* r00 r00 x)))))
 (let ((?x447 (* (- 3) s)))
 (let ((?x44 (* 3 s00)))
 (let ((?x981 (* 4 ?x539)))
 (let ((?x866 (* 18 ?x470)))
 (let ((?x399 (+ (* 9 (* s r)) ?x866 (* (- 9) (* r00 s00)) (* (- 2) (* s s)) (* (- 18) (* x r)) (* (- 6) (* r00 s r)) (* 6 ?x969) ?x981 (* (- 18) (* r00 x)) ?x44 (* (- 6) ?x735) (* 18 (* x00 r)) ?x447 (* (- 9) (* s00 r)) (* (- 2) (* s00 s)) (* 9 (* r00 s)) (* 6 (* r00 s00 r)))))
 (let ((?x417 (* r00 r00 r00)))
 (let ((?x418 (* 12 ?x417)))
 (let ((?x449 (* (- 6) x00)))
 (let ((?x56 (* 6 x)))
 (let ((?x448 (* (- 3) r00)))
 (let ((?x43 (* 3 r)))
 (let ((?x582 (+ (* 2 (* s r)) (* (- 12) (* r00 r00 r)) ?x43 ?x44 ?x447 ?x448 (* 4 (* s00 r)) (* (- 6) (* r00 s00)) ?x56 ?x449 ?x418)))
 (let (($x1169 (= (+ s00 ?x228 (* 3 (* r r)) ?x263) 0)))
 (let (($x425 (and $x1169 (= ?x582 0) (= ?x399 0) (= ?x431 0) $x344 $x524)))
 (let ((?x143 (* 9 s)))
 (let ((?x935 (* (- 9) s00)))
 (let ((?x864 (* (- 15) ?x539)))
 (let ((?x838 (* (- 36) ?x825)))
 (let ((?x754 (* 6 ?x753)))
 (let ((?x493 (* s s)))
 (let ((?x517 (* 3 ?x493)))
 (let ((?x499 (* (- 54) ?x470)))
 (let ((?x604 (+ (* (- 24) (* s r)) ?x499 (* 36 (* r00 x r)) (* 24 (* r00 s00)) ?x517 (* 54 (* x r)) (* (- 6) (* s00 x)) (* 4 (* r00 s s)) (* (- 2) (* r00 s00 s00)) (* (- 6) (* x00 s)) (* 12 (* s00 s)) (* (- 2) (* r00 s00 s)) ?x754 (* 2 (* s s r)) (* 6 (* x s)) (* (- 4) (* s00 s00 r)) (* (- 36) ?x969) ?x838 ?x864 (* 2 (* s00 s r)) (* (- 36) (* r00 x00 r)) (* 54 (* r00 x)) ?x935 (* 36 ?x735) (* (- 54) (* x00 r)) ?x143 (* 24 (* s00 r)) (* (- 24) (* r00 s)) (* 36 (* r00 r00 x)))))
 (let ((?x47 (* 3 s)))
 (let ((?x326 (* (- 3) s00)))
 (let ((?x552 (* (- 4) ?x539)))
 (let ((?x494 (* 2 ?x493)))
 (let ((?x484 (* (- 18) ?x470)))
 (let ((?x1186 (+ (* (- 9) (* s r)) ?x484 (* 9 (* r00 s00)) ?x494 (* 18 (* x r)) (* 6 (* r00 s r)) (* (- 6) ?x969) ?x552 (* 18 (* r00 x)) ?x326 (* 6 ?x735) (* (- 18) (* x00 r)) ?x47 (* 9 (* s00 r)) (* 2 (* s00 s)) (* (- 9) (* r00 s)) (* (- 6) (* r00 s00 r)))))
 (let ((?x59 (* 6 x00)))
 (let ((?x48 (* 3 r00)))
 (let ((?x297 (* (- 3) r)))
 (let ((?x435 (+ (* (- 2) (* s r)) (* 12 (* r00 r00 r)) ?x297 ?x326 ?x47 ?x48 (* (- 4) (* s00 r)) (* 6 (* r00 s00)) (* (- 6) x) ?x59 (* (- 12) ?x417))))
 (let (($x823 (and $x1169 (= ?x435 0) (= ?x1186 0) (= ?x604 0) $x344 $x524)))
 (rewrite (= $x823 $x425)))))))))))))))))))))))))))))))))))))))))))))))))))))))))))))))))))))))
 ))
 (let (($x225 (exists ((r Int) (s Int) (x Int) )(! (let ((?x211 (* 6 r)))
 (let ((?x212 (+ s ?x211 3)))
 (let ((?x215 (+ r 1)))
 (let ((?x220 (* (- (+ (- s00 ?x212) (* 3 ?x215 ?x215)) (* 3 r00 r00)) ?x212 ?x212 (- 1) ?x215 ?x215 ?x212 ?x212 ?x212)))
 (let ((?x143 (* 9 s)))
 (let ((?x139 (* 36 r00 r00 s00)))
 (let ((?x137 (* 9 s00)))
 (let ((?x123 (* 36 r00 r00 s)))
 (let ((?x157 (- (+ (* 216 r00 s00 x00) (* 108 r00 x00)) (* 54 r00 s00))))
 (let ((?x164 (- (- (+ ?x157 (* 15 s s)) (* 216 r00 r00 r00 s)) (* 36 r00 r00 s00 s00))))
 (let ((?x171 (- (+ (- ?x164 (* 4 s s s)) (* 108 x x)) (* 432 r00 r00 r00 x00))))
 (let ((?x176 (- (+ (- ?x171 (* 12 s s s00)) (* 108 s00 x)) (* 108 r00 s00 s00))))
 (let ((?x180 (+ ?x176 (* 216 r00 r00 r00 s00) (* 108 s x00) (* 432 r00 r00 r00 x))))
 (let ((?x188 (- (+ (- ?x180 (* 66 s s00)) (* 108 r00 s s00)) (* 108 s00 x00))))
 (let ((?x193 (+ (- ?x188 (* 216 r00 s00 x)) (* 36 r00 r00 s s) (* 16 s00 s00 s00))))
 (let ((?x200 (- (+ (- ?x193 (* 108 s x)) ?x123 (* 51 s00 s00)) (* 108 r00 x))))
 (let ((?x207 (- (+ (- (- (+ ?x200 ?x137) ?x139) ?x143) (* 54 r00 s)) (* 216 x x00))))
 (let ((?x105 (+ (- (* (- 24) r s) (* 54 r00 x00)) (* 36 r r00 x) (* 24 r00 s00) (* 3 s s) (* 54 r x))))
 (let ((?x112 (- (+ (- ?x105 (* 6 s00 x)) (* 4 r00 s s)) (* 2 r00 s00 s00))))
 (let ((?x117 (- (+ (- ?x112 (* 6 s x00)) (* 12 s s00)) (* 2 r00 s s00))))
 (let ((?x121 (+ ?x117 (* 6 s00 x00) (* 2 r s s) (* 6 s x))))
 (let ((?x129 (- (- (- ?x121 (* 4 r s00 s00)) ?x123) (* 36 r00 r00 x00))))
 (let ((?x134 (- (+ (- ?x129 (* 15 s00 s00)) (* 2 r s s00)) (* 36 r r00 x00))))
 (let ((?x142 (- (+ (- (+ ?x134 (* 54 r00 x)) ?x137) ?x139) (* 54 r x00))))
 (let ((?x149 (+ (- (+ ?x142 ?x143 (* 24 r s00)) (* 24 r00 s)) (* 36 r00 r00 x))))
 (let ((?x47 (* 3 s)))
 (let ((?x44 (* 3 s00)))
 (let ((?x74 (+ (- (* (- 9) r s) (* 18 r00 x00)) (* 9 r00 s00) (* 2 s s) (* 18 r x) (* 6 r r00 s))))
 (let ((?x80 (+ (- (- ?x74 (* 6 r00 r00 s)) (* 4 s00 s00)) (* 18 r00 x))))
 (let ((?x85 (- (+ (- ?x80 ?x44) (* 6 r00 r00 s00)) (* 18 r x00))))
 (let ((?x91 (- (+ ?x85 ?x47 (* 9 r s00) (* 2 s s00)) (* 9 r00 s))))
 (let ((?x59 (* 6 x00)))
 (let ((?x56 (* 6 x)))
 (let ((?x48 (* 3 r00)))
 (let ((?x43 (* 3 r)))
 (let ((?x46 (- (- (+ (* (- 2) r s) (* 12 r r00 r00)) ?x43) ?x44)))
 (let ((?x55 (+ (- (+ ?x46 ?x47 ?x48) (* 4 r s00)) (* 6 r00 s00))))
 (let (($x36 (= (- (+ (- s00 s) (* 3 r r)) (* 3 r00 r00)) 0)))
 (and $x36 (= (- (+ (- ?x55 ?x56) ?x59) (* 12 r00 r00 r00)) 0) (= (- ?x91 (* 6 r r00 s00)) 0) (= ?x149 0) (= (+ ?x207 (* 108 x00 x00)) 0) (or (not (= ?x220 0)))))))))))))))))))))))))))))))))))))))))) :qid k!35))
 ))
 (let ((?x1091 (lambda ((r Int) (s Int) (x Int) )(let ((?x249 (* r00 r00)))
 (let ((?x263 (* (- 3) ?x249)))
 (let ((?x228 (* (- 1) s)))
 (let ((?x1238 (+ (- 3) s00 ?x228 (* (- 6) r) (* 3 (* (+ 1 r) (+ 1 r))) ?x263)))
 (let ((?x211 (* 6 r)))
 (let ((?x1089 (+ 3 s ?x211)))
 (let ((?x1364 (+ 1 r)))
 (let (($x524 (not (= (* ?x1364 ?x1364 ?x1089 ?x1089 ?x1089 ?x1089 ?x1089 ?x1238) 0))))
 (let ((?x1294 (* x00 x00)))
 (let ((?x319 (* 108 ?x1294)))
 (let ((?x1264 (* (- 9) s)))
 (let ((?x735 (* r00 r00 s00)))
 (let ((?x1214 (* (- 36) ?x735)))
 (let ((?x137 (* 9 s00)))
 (let ((?x539 (* s00 s00)))
 (let ((?x1114 (* 51 ?x539)))
 (let ((?x969 (* r00 r00 s)))
 (let ((?x1034 (* 36 ?x969)))
 (let ((?x1132 (* s00 s00 s00)))
 (let ((?x1044 (* 16 ?x1132)))
 (let ((?x753 (* s00 x00)))
 (let ((?x898 (* (- 108) ?x753)))
 (let ((?x830 (* r00 r00 r00 x00)))
 (let ((?x848 (* (- 432) ?x830)))
 (let ((?x470 (* r00 x00)))
 (let ((?x327 (* 108 ?x470)))
 (let ((?x338 (+ (* 216 (* r00 s00 x00)) ?x327 (* (- 54) (* r00 s00)) (* 15 (* s s)) (* (- 216) (* r00 r00 r00 s)) (* (- 36) (* r00 r00 s00 s00)) (* (- 4) (* s s s)) (* 108 (* x x)) ?x848 (* (- 12) (* s00 s s)) (* 108 (* s00 x)) (* (- 108) (* r00 s00 s00)) (* 216 (* r00 r00 r00 s00)) (* 108 (* x00 s)) (* 432 (* r00 r00 r00 x)) (* (- 66) (* s00 s)) (* 108 (* r00 s00 s)) ?x898 (* (- 216) (* r00 s00 x)) (* 36 (* r00 r00 s s)) ?x1044 (* (- 108) (* x s)) ?x1034 ?x1114 (* (- 108) (* r00 x)) ?x137 ?x1214 ?x1264 (* 54 (* r00 s)) (* (- 216) (* x00 x)) ?x319)))
 (let (($x344 (= ?x338 0)))
 (let ((?x143 (* 9 s)))
 (let ((?x935 (* (- 9) s00)))
 (let ((?x864 (* (- 15) ?x539)))
 (let ((?x825 (* r00 r00 x00)))
 (let ((?x838 (* (- 36) ?x825)))
 (let ((?x754 (* 6 ?x753)))
 (let ((?x493 (* s s)))
 (let ((?x517 (* 3 ?x493)))
 (let ((?x499 (* (- 54) ?x470)))
 (let ((?x604 (+ (* (- 24) (* s r)) ?x499 (* 36 (* r00 x r)) (* 24 (* r00 s00)) ?x517 (* 54 (* x r)) (* (- 6) (* s00 x)) (* 4 (* r00 s s)) (* (- 2) (* r00 s00 s00)) (* (- 6) (* x00 s)) (* 12 (* s00 s)) (* (- 2) (* r00 s00 s)) ?x754 (* 2 (* s s r)) (* 6 (* x s)) (* (- 4) (* s00 s00 r)) (* (- 36) ?x969) ?x838 ?x864 (* 2 (* s00 s r)) (* (- 36) (* r00 x00 r)) (* 54 (* r00 x)) ?x935 (* 36 ?x735) (* (- 54) (* x00 r)) ?x143 (* 24 (* s00 r)) (* (- 24) (* r00 s)) (* 36 (* r00 r00 x)))))
 (let ((?x47 (* 3 s)))
 (let ((?x326 (* (- 3) s00)))
 (let ((?x552 (* (- 4) ?x539)))
 (let ((?x494 (* 2 ?x493)))
 (let ((?x484 (* (- 18) ?x470)))
 (let ((?x1186 (+ (* (- 9) (* s r)) ?x484 (* 9 (* r00 s00)) ?x494 (* 18 (* x r)) (* 6 (* r00 s r)) (* (- 6) ?x969) ?x552 (* 18 (* r00 x)) ?x326 (* 6 ?x735) (* (- 18) (* x00 r)) ?x47 (* 9 (* s00 r)) (* 2 (* s00 s)) (* (- 9) (* r00 s)) (* (- 6) (* r00 s00 r)))))
 (let ((?x59 (* 6 x00)))
 (let ((?x48 (* 3 r00)))
 (let ((?x297 (* (- 3) r)))
 (let ((?x435 (+ (* (- 2) (* s r)) (* 12 (* r00 r00 r)) ?x297 ?x326 ?x47 ?x48 (* (- 4) (* s00 r)) (* 6 (* r00 s00)) (* (- 6) x) ?x59 (* (- 12) (* r00 r00 r00)))))
 (let (($x1169 (= (+ s00 ?x228 (* 3 (* r r)) ?x263) 0)))
 (let (($x823 (and $x1169 (= ?x435 0) (= ?x1186 0) (= ?x604 0) $x344 $x524)))
 (let ((?x212 (+ s ?x211 3)))
 (let ((?x215 (+ r 1)))
 (let ((?x220 (* (- (+ (- s00 ?x212) (* 3 ?x215 ?x215)) (* 3 r00 r00)) ?x212 ?x212 (- 1) ?x215 ?x215 ?x212 ?x212 ?x212)))
 (let ((?x139 (* 36 r00 r00 s00)))
 (let ((?x123 (* 36 r00 r00 s)))
 (let ((?x157 (- (+ (* 216 r00 s00 x00) (* 108 r00 x00)) (* 54 r00 s00))))
 (let ((?x164 (- (- (+ ?x157 (* 15 s s)) (* 216 r00 r00 r00 s)) (* 36 r00 r00 s00 s00))))
 (let ((?x171 (- (+ (- ?x164 (* 4 s s s)) (* 108 x x)) (* 432 r00 r00 r00 x00))))
 (let ((?x176 (- (+ (- ?x171 (* 12 s s s00)) (* 108 s00 x)) (* 108 r00 s00 s00))))
 (let ((?x180 (+ ?x176 (* 216 r00 r00 r00 s00) (* 108 s x00) (* 432 r00 r00 r00 x))))
 (let ((?x188 (- (+ (- ?x180 (* 66 s s00)) (* 108 r00 s s00)) (* 108 s00 x00))))
 (let ((?x193 (+ (- ?x188 (* 216 r00 s00 x)) (* 36 r00 r00 s s) (* 16 s00 s00 s00))))
 (let ((?x200 (- (+ (- ?x193 (* 108 s x)) ?x123 (* 51 s00 s00)) (* 108 r00 x))))
 (let ((?x207 (- (+ (- (- (+ ?x200 ?x137) ?x139) ?x143) (* 54 r00 s)) (* 216 x x00))))
 (let ((?x105 (+ (- (* (- 24) r s) (* 54 r00 x00)) (* 36 r r00 x) (* 24 r00 s00) (* 3 s s) (* 54 r x))))
 (let ((?x112 (- (+ (- ?x105 (* 6 s00 x)) (* 4 r00 s s)) (* 2 r00 s00 s00))))
 (let ((?x117 (- (+ (- ?x112 (* 6 s x00)) (* 12 s s00)) (* 2 r00 s s00))))
 (let ((?x121 (+ ?x117 (* 6 s00 x00) (* 2 r s s) (* 6 s x))))
 (let ((?x129 (- (- (- ?x121 (* 4 r s00 s00)) ?x123) (* 36 r00 r00 x00))))
 (let ((?x134 (- (+ (- ?x129 (* 15 s00 s00)) (* 2 r s s00)) (* 36 r r00 x00))))
 (let ((?x142 (- (+ (- (+ ?x134 (* 54 r00 x)) ?x137) ?x139) (* 54 r x00))))
 (let ((?x149 (+ (- (+ ?x142 ?x143 (* 24 r s00)) (* 24 r00 s)) (* 36 r00 r00 x))))
 (let ((?x44 (* 3 s00)))
 (let ((?x74 (+ (- (* (- 9) r s) (* 18 r00 x00)) (* 9 r00 s00) (* 2 s s) (* 18 r x) (* 6 r r00 s))))
 (let ((?x80 (+ (- (- ?x74 (* 6 r00 r00 s)) (* 4 s00 s00)) (* 18 r00 x))))
 (let ((?x85 (- (+ (- ?x80 ?x44) (* 6 r00 r00 s00)) (* 18 r x00))))
 (let ((?x91 (- (+ ?x85 ?x47 (* 9 r s00) (* 2 s s00)) (* 9 r00 s))))
 (let ((?x56 (* 6 x)))
 (let ((?x43 (* 3 r)))
 (let ((?x46 (- (- (+ (* (- 2) r s) (* 12 r r00 r00)) ?x43) ?x44)))
 (let ((?x55 (+ (- (+ ?x46 ?x47 ?x48) (* 4 r s00)) (* 6 r00 s00))))
 (let (($x36 (= (- (+ (- s00 s) (* 3 r r)) (* 3 r00 r00)) 0)))
 (let (($x224 (and $x36 (= (- (+ (- ?x55 ?x56) ?x59) (* 12 r00 r00 r00)) 0) (= (- ?x91 (* 6 r r00 s00)) 0) (= ?x149 0) (= (+ ?x207 (* 108 x00 x00)) 0) (or (not (= ?x220 0))))))
 (rewrite (= $x224 $x823))))))))))))))))))))))))))))))))))))))))))))))))))))))))))))))))))))))))))))))))))))))
 ))
 (let ((@x226 (asserted $x225)))
 (let ((@x581 (mp (mp @x226 (quant-intro (proof-bind ?x1091) (= $x225 $x525)) $x525) (rewrite (= $x525 $x525)) $x525)))
 (let ((@x768 (mp (mp @x581 (quant-intro (proof-bind ?x433) (= $x525 $x954)) $x954) (quant-intro (proof-bind ?x1231) (= $x954 $x1230)) $x1230)))
 (let ((@x1014 (mp (mp~ @x768 (sk (~ $x1230 $x651)) $x651) (rewrite (= $x651 $x289)) $x289)))
 (let ((@x1011 (and-elim @x1014 $x606)))
 (let ((@x890 (unit-resolution ((_ th-lemma arith triangle-eq) (or (not $x606) $x1218)) @x1011 $x1218)))
 (let (($x1207 (>= ?x588 0)))
 (let ((@x1270 (unit-resolution ((_ th-lemma arith triangle-eq) (or (not $x606) $x1207)) @x1011 $x1207)))
 (let (($x1273 (not (<= ?x308 0))))
 (let (($x333 (>= ?x308 0)))
 (let ((@x1274 (unit-resolution ((_ th-lemma arith triangle-eq) (or $x519 $x1273 (not $x333))) (and-elim @x1014 $x1365) (or $x1273 (not $x333)))))
 (let ((@x1278 (unit-resolution @x1274 (lemma ((_ th-lemma arith farkas 1 1 1) (hypothesis (not $x333)) @x1270 @x890 false) $x333) $x1273)))
 ((_ th-lemma arith farkas 1 1 1) @x1278 @x1270 @x890 false))))))))))))))))))))))))))))))))))))))))))))))))))))))))))))))))))))))))))))))))))))))))))))))))))))))))))))))))))

(:added-eqs                 5
 :arith-assert-diseq        1
 :arith-assert-lower        9
 :arith-assert-upper        8
 :arith-conflicts           2
 :arith-eq-adapter          6
 :arith-num-rows            7
 :arith-pseudo-nonlinear    2
 :arith-tableau-max-columns 93
 :arith-tableau-max-rows    7
 :conflicts                 2
 :decisions                 1
 :del-clause                17
 :max-memory                3.92
 :memory                    3.32
 :mk-bool-var               24
 :mk-clause                 19
 :num-allocs                1314739
 :num-checks                1
 :propagations              12
 :rlimit-count              6493
 :time                      0.01
 :total-time                0.02)
